 $contrl units=angs local=ruednbrg runtyp=makefp 
       mult=1 icharg=0  coord=cart icut=11
       maxit=180 $end
 $system timlim=99999 mwords=2500 $end
 $scf soscf=.f. dirscf=.t. diis=.t. CONV=1.0d-06
       $end
 $basis gbasis=n31 ngauss=6 ndfunc=1
    $end
 $DAMP IFTTYP(1)=3,2 IFTFIX(1)=1,1 thrsh=500.0 $end
 $MAKEFP  POL=.t. DISP=.f. CHTR=.f.  EXREP=.f. $end
 $data
 comment_field
 C1
  C 6.0 1.1291 0.0795  C 6.0 0.7115 -1.2207  H 1.0 2.0789 0.4171  H 1.0 1.2719 -2.0822  S -0.0500 1.1306 0.1514
  N 7.0 -1.1147 -0.1822  C 6.0 -0.5926 -1.3347  H 1.0 -1.1422 -2.2662 $end
