 $contrl units=angs local=ruednbrg runtyp=makefp 
       mult=1 icharg=0  coord=cart icut=11
       maxit=180 $end
 $system timlim=99999 mwords=2500 $end
 $scf soscf=.f. dirscf=.t. diis=.t. CONV=1.0d-06
       $end
 $basis gbasis=n31 ngauss=6 ndfunc=1
    $end
 $DAMP IFTTYP(1)=3,2 IFTFIX(1)=1,1 thrsh=500.0 $end
 $MAKEFP  POL=.t. DISP=.f. CHTR=.f.  EXREP=.f. $end
 $data
 comment_field
 C1
  C 6.0 0.1451 -0.0598  C 6.0 -1.0655 0.8302  O 8.0 -1.1170 1.9463  C 6.0l 1.5973 0.7262  C 6.0l -0.0807 -1.5539  O 8.0 -2.2119 0.2759  C 6.0l 0.3812 -0.4610  H 1.0 -2.9414 0.8748 $end
