 $contrl units=angs local=ruednbrg runtyp=makefp 
       mult=1 icharg=0  coord=cart icut=11
       maxit=180 $end
 $system timlim=99999 mwords=2500 $end
 $scf soscf=.f. dirscf=.t. diis=.t. CONV=1.0d-06
       $end
 $basis gbasis=n31 ngauss=6 ndfunc=1
    $end
 $DAMP IFTTYP(1)=3,2 IFTFIX(1)=1,1 thrsh=500.0 $end
 $MAKEFP  POL=.t. DISP=.f. CHTR=.f.  EXREP=.f. $end
 $data
 comment_field
 C1
  H 1.0 0.5288 0.1610  C 6.0 0.0000 0.0000  H 1.0 0.2051 0.8240  H 1.0 0.3345 -0.9314  H 1.0 -1.0685 -0.0537 $end
